0 94 
1 94 
2 98 
3 98 
4 100 
5 98 
6 98 
7 98 
8 96 
9 93 
10 93 
11 93 
12 92 
13 90 
14 86 
15 85 
16 86 
17 83 
18 83 
19 84 
20 81 
21 79 
22 80 
23 78 
24 77 
25 73 
26 75 
27 73 
28 74 
29 70 
30 70 
31 69 
32 68 
33 66 
34 62 
35 57 
36 55 
37 56 
38 55 
39 54 
40 54 
41 55 
42 55 
43 53 
44 51 
45 47 
46 47 
47 47 
48 45 
49 41 
50 38 
51 36 
52 31 
53 27 
54 26 
55 26 
56 26 
57 24 
58 23 
59 22 
60 19 
61 17 
62 17 
63 15 
64 17 
65 15 
66 13 
67 15 
68 18 
69 16 
70 17 
71 16 
72 15 
73 17 
74 15 
75 17 
76 15 
77 13 
78 11 
79 13 
80 13 
81 12 
82 11 
83 7 
84 9 
85 7 
86 4 
87 6 
88 5 
89 6 
90 6 
91 6 
92 7 
93 5 
94 3 
95 1 
96 1 
97 0 
98 0 

